(declare-sort Loc 0)
(declare-const f1_0_main_Load Loc)
(declare-const f252_0_main_InvokeMethod Loc)
(declare-const f61_0_createTree_Return Loc)
(declare-const f355_0_createTree_Return Loc)
(declare-const f845_0_alternate_NONNULL Loc)
(declare-const f2521_0_main_InvokeMethod Loc)
(declare-const f701_0_createTree_Return Loc)
(declare-const f2530_0_main_InvokeMethod Loc)
(declare-const f702_0_createTree_Return Loc)
(declare-const f2589_0_main_InvokeMethod Loc)
(declare-const f741_0_random_GT Loc)
(declare-const f875_0_createTree_NE Loc)
(declare-const f1172_0_createNode_Return Loc)
(declare-const f2504_0_createTree_LE Loc)
(declare-const f2588_0_createTree_NONNULL Loc)
(declare-const f2671_0_createTree_FieldAccess Loc)
(declare-const f2712_0_createTree_LE Loc)
(declare-const f2777_0_createTree_FieldAccess Loc)
(declare-const f756_0_copy_NONNULL Loc)
(declare-const f1242_0_alternate_InvokeMethod Loc)
(declare-const f1247_0_copy_InvokeMethod Loc)
(declare-const f2035_0_random_GT Loc)
(declare-const __init Loc)
(assert (distinct f1_0_main_Load f252_0_main_InvokeMethod f61_0_createTree_Return f355_0_createTree_Return f845_0_alternate_NONNULL f2521_0_main_InvokeMethod f701_0_createTree_Return f2530_0_main_InvokeMethod f702_0_createTree_Return f2589_0_main_InvokeMethod f741_0_random_GT f875_0_createTree_NE f1172_0_createNode_Return f2504_0_createTree_LE f2588_0_createTree_NONNULL f2671_0_createTree_FieldAccess f2712_0_createTree_LE f2777_0_createTree_FieldAccess f756_0_copy_NONNULL f1242_0_alternate_InvokeMethod f1247_0_copy_InvokeMethod f2035_0_random_GT __init ))

(define-fun cfg_init ( (pc Loc) (src Loc) (rel Bool) ) Bool
  (and (= pc src) rel))

(define-fun cfg_trans2 ( (pc Loc) (src Loc)
                         (pc1 Loc) (dst Loc)
                         (rel Bool) ) Bool
  (and (= pc src) (= pc1 dst) rel))

(define-fun cfg_trans3 ( (pc Loc) (exit Loc)
                         (pc1 Loc) (call Loc)
                         (pc2 Loc) (return Loc)
                         (rel Bool) ) Bool
  (and (= pc exit) (= pc1 call) (= pc2 return) rel))

(define-fun init_main ( (pc Loc) (arg1 Int) (arg2 Int) (arg3 Int) (arg4 Int) (arg5 Int) (arg6 Int) (arg7 Int) (arg8 Int) (arg9 Int) ) Bool
  (cfg_init pc __init true))

(define-fun next_main (
                 (pc Loc) (arg1 Int) (arg2 Int) (arg3 Int) (arg4 Int) (arg5 Int) (arg6 Int) (arg7 Int) (arg8 Int) (arg9 Int)
                 (pc1 Loc) (arg1P Int) (arg2P Int) (arg3P Int) (arg4P Int) (arg5P Int) (arg6P Int) (arg7P Int) (arg8P Int) (arg9P Int)
             ) Bool
  (or
    (cfg_trans2 pc f1_0_main_Load pc1 f252_0_main_InvokeMethod (and (and (and (<= arg1P arg1) (> arg1 0)) (> arg1P 0)) (= 0 arg2P)))
    (cfg_trans2 pc f1_0_main_Load pc1 f252_0_main_InvokeMethod (and (and (<= arg1P arg1) (> arg1 0)) (> arg1P 0)))
    (cfg_trans2 pc f61_0_createTree_Return pc1 f252_0_main_InvokeMethod (and (> arg1P 0) (= 0 arg2P)))
    (cfg_trans2 pc f252_0_main_InvokeMethod pc1 f355_0_createTree_Return (and (and (<= arg1P arg1) (> arg1 0)) (> arg1P 0)))
    (cfg_trans2 pc f355_0_createTree_Return pc1 f845_0_alternate_NONNULL (and (and (and (and (and (and (and (and (<= (+ arg1P 1) arg1) (<= (+ arg2P 1) arg1)) (<= (+ arg3P 1) arg1)) (<= (+ arg4P 1) arg1)) (> arg1 0)) (> arg1P (- 1))) (> arg2P (- 1))) (> arg3P (- 1))) (> arg4P (- 1))))
    (cfg_trans2 pc f1_0_main_Load pc1 f2521_0_main_InvokeMethod (and (and (and (<= arg1P arg1) (> arg1 0)) (> arg1P 0)) (> arg2P 0)))
    (cfg_trans2 pc f701_0_createTree_Return pc1 f2521_0_main_InvokeMethod (and (and (and (and (and (and (and (and (and (<= arg1P arg1) (<= (+ arg1P 1) arg2)) (<= arg2P arg2)) (> arg1 0)) (> arg2 1)) (> arg1P 0)) (> arg2P 1)) (<= (+ arg4 2) arg2)) (= arg3 arg3P)) (= arg4 arg4P)))
    (cfg_trans2 pc f252_0_main_InvokeMethod pc1 f2530_0_main_InvokeMethod (and (and (and (<= arg1P arg1) (> arg1 0)) (> arg1P 0)) (> arg2P 0)))
    (cfg_trans2 pc f702_0_createTree_Return pc1 f2530_0_main_InvokeMethod (and (and (and (and (and (and (and (and (<= arg1P arg1) (<= (+ arg1P 1) arg2)) (<= arg2P arg2)) (> arg1 0)) (> arg2 1)) (> arg1P 0)) (> arg2P 1)) (<= (+ arg3 2) arg2)) (= arg3 arg3P)))
    (cfg_trans2 pc f2530_0_main_InvokeMethod pc1 f845_0_alternate_NONNULL (and (and (and (and (and (and (and (and (and (and (and (and (and (<= (+ arg1P 1) arg1) (<= (+ arg1P 1) arg2)) (<= (+ arg2P 1) arg1)) (<= (+ arg2P 1) arg2)) (<= arg3P arg2)) (<= (+ arg4P 1) arg1)) (<= (+ arg4P 1) arg2)) (> arg1 0)) (> arg2 0)) (> arg1P (- 1))) (> arg2P (- 1))) (> arg3P 0)) (> arg4P (- 1))) (<= (+ arg3 2) arg2)))
    (cfg_trans2 pc f2521_0_main_InvokeMethod pc1 f2589_0_main_InvokeMethod (and (and (and (and (and (and (and (and (and (<= arg1P arg1) (<= arg1P arg2)) (<= arg2P arg2)) (> arg1 0)) (> arg2 0)) (> arg1P 0)) (> arg2P 0)) (<= (+ arg4P 2) arg2)) (<= (+ arg4 2) arg2)) (= arg4 arg3P)))
    (cfg_trans2 pc f2589_0_main_InvokeMethod pc1 f845_0_alternate_NONNULL (and (and (and (and (and (and (and (and (and (and (and (and (<= arg1P arg2) (<= arg2P arg2)) (<= (+ arg3P 1) arg1)) (<= (+ arg3P 1) arg2)) (<= arg4P arg2)) (> arg1 0)) (> arg2 0)) (> arg1P 0)) (> arg2P 0)) (> arg3P (- 1))) (> arg4P 0)) (<= (+ arg4 2) arg2)) (<= (+ arg3 2) arg2)))
    (cfg_trans2 pc f2521_0_main_InvokeMethod pc1 f845_0_alternate_NONNULL (and (and (and (and (and (and (and (and (and (<= arg1P arg2) (<= arg2P arg2)) (<= arg4P arg2)) (> arg1 0)) (> arg2 0)) (> arg1P 0)) (> arg2P 0)) (> arg3P 0)) (> arg4P 0)) (<= (+ arg4 2) arg2)))
    (cfg_trans2 pc f1_0_main_Load pc1 f741_0_random_GT (and (> arg1 0) (> arg2 (- 1))))
    (cfg_trans2 pc f252_0_main_InvokeMethod pc1 f741_0_random_GT (exists ((x79 Int)) (and (> arg1 0) (> x79 (- 1)))))
    (cfg_trans2 pc f2521_0_main_InvokeMethod pc1 f741_0_random_GT (exists ((x82 Int)) (and (and (and (> arg1 0) (> x82 (- 1))) (> arg2 0)) (<= (+ arg4 2) arg2))))
    (cfg_trans2 pc f741_0_random_GT pc1 f875_0_createTree_NE (exists ((x88 Int)) (and (and (and (> x88 (- 1)) (< x88 arg2P)) (= 0 arg1P)) (= (+ x88 1) arg3P))))
    (cfg_trans2 pc f741_0_random_GT pc1 f875_0_createTree_NE (exists ((x90 Int)) (and (and (and (< x90 arg2P) (> arg1P (- 1))) (> x90 (- 1))) (= (+ x90 1) arg3P))))
    (cfg_trans2 pc f1172_0_createNode_Return pc1 f2504_0_createTree_LE (and (and (and (and (> arg2P 1) (> arg1P 1)) (= arg1 arg3P)) (= arg2 arg4P)) (= arg3 arg5P)))
    (cfg_trans2 pc f875_0_createTree_NE pc1 f2504_0_createTree_LE (and (and (and (and (and (and (> arg1 0) (> arg3 0)) (> arg2P 1)) (> arg1P 1)) (= arg1 arg3P)) (= arg2 arg4P)) (= arg3 arg5P)))
    (cfg_trans2 pc f875_0_createTree_NE pc1 f2504_0_createTree_LE (and (and (and (and (and (> arg1 0) (> arg3 0)) (> arg2P 1)) (> arg1P 1)) (= arg1 arg3P)) (= arg2 arg4P)))
    (cfg_trans2 pc f2504_0_createTree_LE pc1 f2588_0_createTree_NONNULL (and (and (and (and (and (and (and (and (and (and (and (and (and (and (and (and (>= arg5 arg4) (> arg4 (- 1))) (> arg3 0)) (<= arg2P arg1)) (<= arg3P arg2)) (<= (+ arg4P 1) arg2)) (> arg1 0)) (> arg2 0)) (> arg2P 0)) (> arg3P 0)) (> arg4P (- 1))) (<= (+ arg7P 2) arg1)) (<= (+ arg8P 2) arg1)) (<= (+ arg9P 2) arg2)) (= arg3 arg1P)) (= arg4 arg5P)) (= arg5 arg6P)))
    (cfg_trans2 pc f2588_0_createTree_NONNULL pc1 f2504_0_createTree_LE (and (and (and (and (and (and (and (and (and (and (and (and (and (<= arg1P arg2) (<= (+ arg2P 2) arg3)) (<= arg2P arg4)) (> arg2 0)) (> arg3 2)) (> arg4 0)) (> arg1P 0)) (> arg2P 0)) (<= (+ arg7 2) arg2)) (<= (+ arg8 2) arg2)) (<= (+ arg9 2) arg3)) (= (- arg1 1) arg3P)) (= arg5 arg4P)) (= arg6 arg5P)))
    (cfg_trans2 pc f2588_0_createTree_NONNULL pc1 f2671_0_createTree_FieldAccess (and (and (and (and (and (and (and (and (and (and (and (and (and (and (and (and (>= arg6 arg5) (> arg1 0)) (<= arg2P arg2)) (<= arg3P arg3)) (> arg2 0)) (> arg3 1)) (> arg4 (- 1))) (> arg2P 0)) (> arg3P 1)) (<= (+ arg7 2) arg2)) (<= (+ arg8 2) arg2)) (<= (+ arg9 2) arg3)) (= arg1 arg1P)) (= arg5 arg4P)) (= arg6 arg5P)) (= arg8 arg6P)) (= arg9 arg7P)))
    (cfg_trans2 pc f2588_0_createTree_NONNULL pc1 f2671_0_createTree_FieldAccess (and (and (and (and (and (and (and (and (and (and (and (and (and (and (and (>= arg6 arg5) (> arg1 0)) (<= arg2P arg2)) (<= arg3P arg3)) (> arg2 0)) (> arg3 1)) (> arg4 (- 1))) (> arg2P 0)) (> arg3P 1)) (<= (+ arg7 2) arg2)) (<= (+ arg8 2) arg2)) (<= (+ arg9 2) arg3)) (= arg1 arg1P)) (= arg5 arg4P)) (= arg8 arg6P)) (= arg9 arg7P)))
    (cfg_trans2 pc f2504_0_createTree_LE pc1 f2712_0_createTree_LE (and (and (and (and (and (and (and (and (and (and (and (and (and (and (and (> arg3 0) (> arg4 (- 1))) (< arg5 arg4)) (> arg5 (- 1))) (<= arg2P arg1)) (<= arg3P arg2)) (> arg1 0)) (> arg2 0)) (> arg2P 0)) (> arg3P 0)) (<= (+ arg7P 2) arg1)) (<= (+ arg8P 2) arg1)) (= arg3 arg1P)) (= 0 arg4P)) (= arg4 arg5P)) (= (+ arg5 1) arg6P)))
    (cfg_trans2 pc f2504_0_createTree_LE pc1 f2712_0_createTree_LE (and (and (and (and (and (and (and (and (and (and (and (and (and (and (and (> arg3 0) (> arg4 (- 1))) (< arg5 arg4)) (> arg5 (- 1))) (> arg4P (- 1))) (<= arg2P arg1)) (<= arg3P arg2)) (> arg1 0)) (> arg2 0)) (> arg2P 0)) (> arg3P 0)) (<= (+ arg7P 2) arg1)) (<= (+ arg8P 2) arg1)) (= arg3 arg1P)) (= arg4 arg5P)) (= (+ arg5 1) arg6P)))
    (cfg_trans2 pc f2671_0_createTree_FieldAccess pc1 f2504_0_createTree_LE (and (and (and (and (and (and (and (and (> arg2 0) (> arg3 1)) (> arg1P 0)) (> arg2P 0)) (<= (+ arg6 2) arg2)) (<= (+ arg7 2) arg3)) (= (- arg1 1) arg3P)) (= arg4 arg4P)) (= arg5 arg5P)))
    (cfg_trans2 pc f2671_0_createTree_FieldAccess pc1 f2504_0_createTree_LE (and (and (and (and (and (and (and (and (and (and (and (and (and (<= (- arg1P 2) arg2) (<= (- arg1P 2) arg3)) (<= (- arg2P 2) arg2)) (<= (- arg2P 2) arg3)) (> arg2 1)) (> arg3 1)) (> arg1P 3)) (> arg2P 3)) (<= (+ arg6 2) arg2)) (<= (+ arg6 2) arg3)) (= arg6 arg7)) (= (- arg1 1) arg3P)) (= arg4 arg4P)) (= arg5 arg5P)))
    (cfg_trans2 pc f2712_0_createTree_LE pc1 f2588_0_createTree_NONNULL (and (and (and (and (and (and (and (and (and (and (and (and (and (and (and (and (<= arg2P arg2) (<= arg3P arg3)) (<= (+ arg4P 1) arg3)) (> arg2 0)) (> arg3 0)) (> arg2P 0)) (> arg3P 0)) (> arg4P (- 1))) (<= (+ arg7 2) arg2)) (<= (+ arg8 2) arg2)) (<= (+ arg9P 2) arg3)) (= 0 arg4)) (= arg1 arg1P)) (= arg5 arg5P)) (= arg6 arg6P)) (= arg7 arg7P)) (= arg8 arg8P)))
    (cfg_trans2 pc f2712_0_createTree_LE pc1 f2504_0_createTree_LE (and (and (and (and (and (and (and (and (and (and (and (<= arg1P arg2) (> arg4 0)) (<= (+ arg2P 2) arg3)) (> arg2 0)) (> arg3 2)) (> arg1P 0)) (> arg2P 0)) (<= (+ arg7 2) arg2)) (<= (+ arg8 2) arg2)) (= (- arg1 1) arg3P)) (= arg5 arg4P)) (= arg6 arg5P)))
    (cfg_trans2 pc f2712_0_createTree_LE pc1 f2777_0_createTree_FieldAccess (and (and (and (and (and (and (and (and (and (and (and (and (and (and (and (> arg4 0) (> arg6 0)) (> arg1 0)) (<= arg2P arg2)) (<= arg3P arg3)) (> arg2 0)) (> arg3 1)) (> arg2P 0)) (> arg3P 1)) (<= (+ arg7 2) arg2)) (<= (+ arg8 2) arg2)) (<= (+ arg7P 2) arg3)) (= arg1 arg1P)) (= arg5 arg4P)) (= arg6 arg5P)) (= arg7 arg6P)))
    (cfg_trans2 pc f2712_0_createTree_LE pc1 f2777_0_createTree_FieldAccess (and (and (and (and (and (and (and (and (and (and (and (and (and (and (> arg4 0) (> arg6 0)) (> arg1 0)) (<= arg2P arg2)) (<= arg3P arg3)) (> arg2 0)) (> arg3 1)) (> arg2P 0)) (> arg3P 1)) (<= (+ arg7 2) arg2)) (<= (+ arg8 2) arg2)) (<= (+ arg7P 2) arg3)) (= arg1 arg1P)) (= arg5 arg4P)) (= arg7 arg6P)))
    (cfg_trans2 pc f2777_0_createTree_FieldAccess pc1 f2504_0_createTree_LE (and (and (and (and (and (and (and (and (> arg2 0) (> arg3 1)) (> arg1P 0)) (> arg2P 0)) (<= (+ arg6 2) arg2)) (<= (+ arg7 2) arg3)) (= (- arg1 1) arg3P)) (= arg4 arg4P)) (= arg5 arg5P)))
    (cfg_trans2 pc f2777_0_createTree_FieldAccess pc1 f2504_0_createTree_LE (and (and (and (and (and (and (and (and (and (and (and (and (and (<= (- arg1P 2) arg2) (<= (- arg1P 2) arg3)) (<= (- arg2P 2) arg2)) (<= (- arg2P 2) arg3)) (> arg2 1)) (> arg3 1)) (> arg1P 3)) (> arg2P 3)) (<= (+ arg6 2) arg2)) (<= (+ arg6 2) arg3)) (= arg6 arg7)) (= (- arg1 1) arg3P)) (= arg4 arg4P)) (= arg5 arg5P)))
    (cfg_trans2 pc f845_0_alternate_NONNULL pc1 f756_0_copy_NONNULL (and (and (and (and (and (<= arg1P arg3) (> arg1 (- 1))) (> arg2 (- 1))) (> arg3 (- 1))) (> arg4 (- 1))) (> arg1P (- 1))))
    (cfg_trans2 pc f845_0_alternate_NONNULL pc1 f756_0_copy_NONNULL (and (and (and (and (and (and (and (<= (+ arg1P 1) arg1) (<= (+ arg1P 1) arg2)) (<= (+ arg1P 1) arg4)) (> arg1 0)) (> arg2 0)) (> arg3 (- 1))) (> arg4 0)) (> arg1P (- 1))))
    (cfg_trans2 pc f845_0_alternate_NONNULL pc1 f845_0_alternate_NONNULL (and (and (and (and (and (and (and (and (and (and (and (and (and (<= arg1P arg3) (<= arg2P arg3)) (<= (+ arg3P 2) arg1)) (<= (+ arg3P 2) arg2)) (<= (+ arg3P 2) arg4)) (<= arg4P arg3)) (> arg1 1)) (> arg2 1)) (> arg3 (- 1))) (> arg4 1)) (> arg1P (- 1))) (> arg2P (- 1))) (> arg3P (- 1))) (> arg4P (- 1))))
    (cfg_trans2 pc f845_0_alternate_NONNULL pc1 f1242_0_alternate_InvokeMethod (and (and (and (and (and (and (and (and (and (and (and (and (and (and (and (and (and (and (<= arg1P arg1) (<= arg1P arg2)) (<= arg1P arg4)) (<= arg3P arg3)) (<= (+ arg4P 2) arg1)) (<= (+ arg4P 2) arg2)) (<= (+ arg4P 2) arg4)) (<= (+ arg6P 2) arg1)) (<= (+ arg6P 2) arg2)) (<= (+ arg6P 2) arg4)) (> arg1 4)) (> arg2 4)) (> arg3 (- 1))) (> arg4 4)) (> arg1P 4)) (> arg2P 2)) (> arg3P (- 1))) (> arg4P (- 1))) (> arg6P (- 1))))
    (cfg_trans2 pc f845_0_alternate_NONNULL pc1 f1242_0_alternate_InvokeMethod (and (and (and (and (and (and (and (and (and (and (and (and (and (and (and (and (and (and (<= arg1P arg1) (<= arg1P arg2)) (<= arg1P arg4)) (<= arg3P arg3)) (<= (+ arg4P 2) arg1)) (<= (+ arg4P 2) arg2)) (<= (+ arg4P 2) arg4)) (<= (+ arg6P 2) arg1)) (<= (+ arg6P 2) arg2)) (<= (+ arg6P 2) arg4)) (> arg1 4)) (> arg2 4)) (> arg3 (- 1))) (> arg4 4)) (> arg1P 4)) (> arg2P 2)) (> arg3P (- 1))) (> arg4P (- 1))) (> arg6P (- 1))))
    (cfg_trans2 pc f845_0_alternate_NONNULL pc1 f1242_0_alternate_InvokeMethod (and (and (and (and (and (and (and (and (and (and (and (and (and (and (and (and (and (and (<= arg1P arg1) (<= arg1P arg2)) (<= arg1P arg4)) (<= arg3P arg3)) (<= (+ arg4P 2) arg1)) (<= (+ arg4P 2) arg2)) (<= (+ arg4P 2) arg4)) (<= (+ arg6P 2) arg1)) (<= (+ arg6P 2) arg2)) (<= (+ arg6P 2) arg4)) (> arg1 4)) (> arg2 4)) (> arg3 (- 1))) (> arg4 4)) (> arg1P 4)) (> arg2P 2)) (> arg3P (- 1))) (> arg4P (- 1))) (> arg6P (- 1))))
    (cfg_trans2 pc f845_0_alternate_NONNULL pc1 f1242_0_alternate_InvokeMethod (and (and (and (and (and (and (and (and (and (and (and (and (and (and (and (and (and (and (and (and (and (and (<= arg1P arg1) (<= arg1P arg2)) (<= arg1P arg4)) (<= (+ arg2P 2) arg1)) (<= (+ arg2P 2) arg2)) (<= (- arg2P 2) arg3)) (<= (+ arg2P 2) arg4)) (<= arg3P arg3)) (<= (+ arg4P 2) arg1)) (<= (+ arg4P 2) arg2)) (<= (+ arg4P 2) arg4)) (<= (+ arg6P 2) arg1)) (<= (+ arg6P 2) arg2)) (<= (+ arg6P 2) arg4)) (> arg1 3)) (> arg2 3)) (> arg3 (- 1))) (> arg4 3)) (> arg1P 3)) (> arg2P 1)) (> arg3P (- 1))) (> arg4P (- 1))) (> arg6P (- 1))))
    (cfg_trans2 pc f1242_0_alternate_InvokeMethod pc1 f845_0_alternate_NONNULL (and (and (and (and (and (and (and (and (and (and (and (and (and (and (<= arg1P arg3) (<= arg2P arg3)) (<= (+ arg3P 2) arg1)) (<= arg3P arg4)) (<= arg3P arg6)) (<= arg4P arg3)) (> arg1 2)) (> arg2 0)) (> arg3 (- 1))) (> arg4 (- 1))) (> arg6 (- 1))) (> arg1P (- 1))) (> arg2P (- 1))) (> arg3P (- 1))) (> arg4P (- 1))))
    (cfg_trans2 pc f756_0_copy_NONNULL pc1 f756_0_copy_NONNULL (and (and (<= (+ arg1P 1) arg1) (> arg1 0)) (> arg1P (- 1))))
    (cfg_trans2 pc f756_0_copy_NONNULL pc1 f756_0_copy_NONNULL (and (and (<= (+ arg1P 2) arg1) (> arg1 1)) (> arg1P (- 1))))
    (cfg_trans2 pc f756_0_copy_NONNULL pc1 f1247_0_copy_InvokeMethod (and (and (and (and (and (and (<= arg1P arg1) (<= (+ arg2P 2) arg1)) (<= (+ arg3P 2) arg1)) (> arg1 4)) (> arg1P 4)) (> arg2P (- 1))) (> arg3P (- 1))))
    (cfg_trans2 pc f756_0_copy_NONNULL pc1 f1247_0_copy_InvokeMethod (and (and (and (and (and (and (<= arg1P arg1) (<= (+ arg2P 2) arg1)) (<= (+ arg3P 2) arg1)) (> arg1 4)) (> arg1P 4)) (> arg2P (- 1))) (> arg3P (- 1))))
    (cfg_trans2 pc f756_0_copy_NONNULL pc1 f1247_0_copy_InvokeMethod (and (and (and (and (and (and (<= arg1P arg1) (<= (+ arg2P 2) arg1)) (<= (+ arg3P 2) arg1)) (> arg1 4)) (> arg1P 4)) (> arg2P (- 1))) (> arg3P (- 1))))
    (cfg_trans2 pc f756_0_copy_NONNULL pc1 f1247_0_copy_InvokeMethod (and (and (and (and (and (and (<= arg1P arg1) (<= (+ arg2P 2) arg1)) (<= (+ arg3P 2) arg1)) (> arg1 3)) (> arg1P 3)) (> arg2P (- 1))) (> arg3P (- 1))))
    (cfg_trans2 pc f1247_0_copy_InvokeMethod pc1 f756_0_copy_NONNULL (and (and (and (and (and (and (<= (+ arg1P 2) arg1) (<= arg1P arg2)) (<= arg1P arg3)) (> arg1 2)) (> arg2 (- 1))) (> arg3 (- 1))) (> arg1P (- 1))))
    (cfg_trans2 pc f875_0_createTree_NE pc1 f2035_0_random_GT (and (and (and (and (> arg1 0) (> arg2 (- 1))) (> arg3 0)) (= arg2 arg2P)) (= arg3 arg3P)))
    (cfg_trans2 pc f2588_0_createTree_NONNULL pc1 f2035_0_random_GT (and (and (and (and (and (and (and (and (and (and (> arg5 (- 1)) (>= arg6 arg5)) (> arg1 0)) (> arg2 0)) (> arg3 1)) (> arg4 (- 1))) (<= (+ arg7 2) arg2)) (<= (+ arg8 2) arg2)) (<= (+ arg9 2) arg3)) (= arg5 arg2P)) (= arg6 arg3P)))
    (cfg_trans2 pc f2712_0_createTree_LE pc1 f2035_0_random_GT (and (and (and (and (and (and (and (and (and (> arg1 0) (> arg6 0)) (> arg5 (- 1))) (> arg4 0)) (> arg2 0)) (> arg3 1)) (<= (+ arg7 2) arg2)) (<= (+ arg8 2) arg2)) (= arg5 arg2P)) (= arg6 arg3P)))
    (cfg_trans2 pc __init pc1 f1_0_main_Load true)
  )
)
